50
28021

376 458
686 403
870 830
160 818
297 261
423 358
365 968
990 735
294 109
665 970
768 442
677 231
231 668
988 879
451 530
424 870
579 746
629 253
824 303
921 883
421 309
520 300
409 377
263 617
676 917
182 187
985 790
604 588
601 903
521 660
558 583
916 419
771 302
998 668
642 279
206 67
636 642
496 458
887 203
901 362
791 358
722 972
842 935
921 270
631 878
690 662
585 960
168 553
971 786
692 272
